NAME: tsp15_3
COMMENT: 15-tsp problem (Padberg/Rinaldi)
TYPE: TSP
DIMENSION: 15
EDGE_WEIGHT_TYPE : EUC_2D
NODE_COORD_SECTION
1 38 16
2 1 38
3 27 23
4 14 35
5 36 35
6 18 34
7 12 37
8 20 11
9 33 7
10 5 9
11 23 31
12 33 27
13 17 33
14 33 32
15 15 9
